%SETS
JOBS = 1..20;
MACHINES = 1..20;
SPEED    = 3;

time = array3d(JOBS,MACHINES,1..SPEED,[23, 5, 4, 7, 1, 1, 8, 2, 1, 7, 1, 1, 10, 2, 1, 4, 1, 1, 4, 1, 1, 85, 21, 15, 83, 20, 15, 5, 1, 1, 1, 1, 1, 5, 1, 1, 31, 7, 5, 39, 9, 7, 1, 1, 1, 22, 5, 4, 1, 1, 1, 18, 4, 3, 26, 6, 4, 109, 26, 19, 7, 1, 1, 41, 10, 7, 52, 12, 9, 66, 16, 11, 1, 1, 1, 16, 4, 2, 103, 25, 18, 13, 3, 2, 43, 10, 7, 20, 5, 3, 38, 9, 6, 17, 4, 3, 1, 1, 1, 2, 1, 1, 3, 1, 1, 7, 1, 1, 86, 21, 15, 25, 6, 4, 43, 10, 7, 21, 5, 3, 26, 6, 4, 43, 10, 7, 67, 16, 12, 63, 15, 11, 45, 11, 8, 2, 1, 1, 11, 2, 2, 1, 1, 1, 20, 5, 3, 41, 10, 7, 1, 1, 1, 5, 1, 1, 11, 2, 2, 7, 1, 1, 41, 10, 7, 11, 2, 2, 26, 6, 4, 17, 4, 3, 22, 5, 4, 72, 17, 13, 74, 18, 13, 3, 1, 1, 48, 11, 8, 10, 2, 1, 2, 1, 1, 12, 3, 2, 18, 4, 3, 84, 20, 15, 12, 2, 2, 1, 1, 1, 50, 12, 9, 3, 1, 1, 16, 4, 3, 49, 12, 8, 18, 4, 3, 15, 3, 2, 41, 10, 7, 1, 1, 1, 21, 5, 3, 13, 3, 2, 108, 26, 19, 41, 10, 7, 1, 1, 1, 5, 1, 1, 15, 3, 2, 31, 7, 5, 10, 2, 1, 11, 2, 2, 65, 16, 11, 79, 19, 14, 13, 3, 2, 59, 14, 10, 10, 2, 1, 2, 1, 1, 19, 4, 3, 27, 6, 5, 57, 14, 10, 86, 21, 15, 38, 9, 6, 36, 9, 6, 32, 7, 5, 31, 7, 5, 37, 9, 6, 94, 23, 17, 12, 2, 2, 2, 1, 1, 7, 1, 1, 6, 1, 1, 11, 2, 2, 43, 10, 7, 1, 1, 1, 15, 3, 2, 43, 10, 7, 7, 1, 1, 1, 1, 1, 7, 1, 1, 2, 1, 1, 42, 10, 7, 4, 1, 1, 5, 1, 1, 43, 10, 7, 43, 10, 7, 23, 5, 4, 63, 15, 11, 1, 1, 1, 86, 21, 15, 21, 5, 3, 9, 2, 1, 45, 11, 8, 27, 6, 5, 111, 27, 20, 2, 1, 1, 22, 5, 4, 16, 4, 2, 27, 6, 4, 7, 1, 1, 1, 1, 1, 20, 4, 3, 11, 2, 2, 57, 14, 10, 15, 3, 2, 14, 3, 2, 25, 6, 4, 19, 4, 3, 84, 20, 15, 40, 9, 7, 17, 4, 3, 6, 1, 1, 23, 5, 4, 35, 8, 6, 36, 8, 6, 130, 31, 23, 6, 1, 1, 14, 3, 2, 14, 3, 2, 9, 2, 1, 11, 2, 2, 16, 4, 3, 20, 4, 3, 7, 1, 1, 3, 1, 1, 9, 2, 1, 3, 1, 1, 9, 2, 1, 29, 7, 5, 23, 5, 4, 152, 37, 27, 21, 5, 3, 20, 5, 3, 26, 6, 4, 33, 8, 6, 24, 6, 4, 22, 5, 4, 24, 5, 4, 11, 2, 2, 38, 9, 6, 24, 5, 4, 9, 2, 1, 7, 1, 1, 1, 1, 1, 11, 2, 1, 1, 1, 1, 4, 1, 1, 1, 1, 1, 8, 2, 1, 11, 2, 1, 23, 5, 4, 38, 9, 6, 25, 6, 4, 4, 1, 1, 58, 14, 10, 33, 8, 6, 17, 4, 3, 26, 6, 4, 18, 4, 3, 4, 1, 1, 26, 6, 4, 114, 28, 20, 38, 9, 6, 5, 1, 1, 3, 1, 1, 68, 16, 12, 62, 15, 11, 35, 8, 6, 36, 9, 6, 3, 1, 1, 43, 10, 7, 5, 1, 1, 4, 1, 1, 13, 3, 2, 1, 1, 1, 48, 11, 8, 4, 1, 1, 34, 8, 6, 22, 5, 4, 38, 9, 6, 23, 5, 4, 84, 20, 15, 12, 3, 2, 17, 4, 3, 10, 2, 1, 35, 8, 6, 9, 2, 1, 41, 10, 7, 2, 1, 1, 6, 1, 1, 14, 3, 2, 3, 1, 1, 5, 1, 1, 47, 11, 8, 12, 2, 2, 6, 1, 1, 48, 11, 8, 22, 5, 3, 25, 6, 4, 56, 13, 10, 32, 7, 5, 7, 1, 1, 1, 1, 1, 20, 5, 3, 31, 7, 5, 42, 10, 7, 5, 1, 1, 26, 6, 4, 72, 17, 12, 7, 1, 1, 8, 2, 1, 14, 3, 2, 21, 5, 3, 119, 29, 21, 22, 5, 4, 56, 13, 10, 27, 6, 4, 16, 4, 2, 9, 2, 1, 11, 2, 2, 38, 9, 6, 5, 1, 1, 3, 1, 1, 6, 1, 1, 28, 7, 5, 12, 2, 2, 5, 1, 1, 10, 2, 1, 2, 1, 1, 14, 3, 2, 43, 10, 7, 15, 3, 2, 15, 3, 2, 1, 1, 1, 8, 2, 1, 2, 1, 1, 1, 1, 1, 51, 12, 9, 32, 7, 5, 45, 11, 8, 3, 1, 1, 11, 2, 2, 63, 15, 11, 14, 3, 2, 67, 16, 12, 84, 20, 15, 1, 1, 1, 14, 3, 2, 22, 5, 4, 11, 2, 1, 12, 2, 2, 11, 2, 2, 6, 1, 1, 1, 1, 1, 33, 8, 6, 168, 41, 30, 1, 1, 1, 50, 12, 9, 20, 4, 3, 1, 1, 1, 1, 1, 1, 19, 4, 3, 2, 1, 1, 9, 2, 1, 8, 2, 1, 91, 22, 16, 16, 4, 2, 8, 2, 1, 72, 17, 12, 88, 21, 15, 32, 8, 5, 3, 1, 1, 57, 13, 10, 15, 3, 2, 39, 9, 7, 33, 8, 5, 27, 6, 4, 37, 9, 6, 43, 10, 7, 16, 3, 2, 17, 4, 3, 2, 1, 1, 11, 2, 2, 56, 13, 10, 6, 1, 1, 35, 8, 6, 42, 10, 7, 5, 1, 1, 37, 9, 6, 27, 6, 4, 95, 23, 17, 12, 3, 2, 36, 8, 6, 48, 11, 8, 12, 3, 2, 6, 1, 1, 11, 2, 2, 27, 6, 4, 7, 1, 1, 50, 12, 9, 9, 2, 1, 37, 9, 6, 10, 2, 1, 18, 4, 3, 53, 13, 9, 17, 4, 3, 25, 6, 4, 10, 2, 1, 16, 4, 2, 1, 1, 1, 18, 4, 3, 15, 3, 2, 9, 2, 1, 4, 1, 1, 10, 2, 1, 9, 2, 1, 11, 2, 2, 42, 10, 7, 58, 14, 10, 63, 15, 11, 14, 3, 2, 59, 14, 10, 22, 5, 4, 147, 36, 26, 3, 1, 1, 36, 8, 6, 22, 5, 4, 18, 4, 3, 36, 9, 6, 46, 11, 8, 46, 11, 8, 10, 2, 1, 12, 3, 2, 23, 5, 4, 1, 1, 1, 43, 10, 7, 22, 5, 4, 15, 3, 2, 26, 6, 4, 80, 19, 14, 42, 10, 7, 27, 6, 4, 6, 1, 1, 92, 22, 16, 12, 3, 2, 60, 14, 10, 17, 4, 3, 28, 7, 5, 56, 13, 10, 1, 1, 1, 9, 2, 1, 5, 1, 1, 1, 1, 1, 10, 2, 1, 63, 15, 11, 7, 1, 1, 3, 1, 1, 73, 18, 13, 17, 4, 3, 16, 4, 2, 30, 7, 5, 43, 10, 7, 6, 1, 1, 5, 1, 1]);
energy = array3d(JOBS,MACHINES,1..SPEED,[79, 95, 96, 93, 99, 99, 92, 98, 99, 93, 99, 99, 90, 98, 99, 96, 99, 99, 96, 99, 99, 42, 81, 86, 43, 81, 86, 95, 99, 99, 99, 99, 99, 95, 99, 99, 73, 93, 95, 67, 91, 93, 99, 99, 99, 80, 95, 96, 99, 99, 99, 83, 96, 97, 77, 94, 96, 33, 77, 82, 93, 99, 99, 66, 90, 93, 59, 88, 91, 51, 85, 89, 99, 99, 99, 85, 96, 98, 35, 77, 83, 87, 97, 98, 65, 90, 93, 81, 95, 97, 68, 91, 94, 84, 96, 97, 99, 99, 99, 98, 99, 99, 97, 99, 99, 93, 99, 99, 42, 81, 86, 77, 94, 96, 65, 90, 93, 81, 95, 97, 77, 94, 96, 65, 90, 93, 51, 85, 88, 53, 86, 89, 63, 89, 92, 98, 99, 99, 89, 98, 98, 99, 99, 99, 81, 95, 97, 66, 90, 93, 99, 99, 99, 95, 99, 99, 89, 98, 98, 93, 99, 99, 66, 90, 93, 89, 98, 98, 77, 94, 96, 84, 96, 97, 80, 95, 96, 48, 84, 87, 47, 83, 87, 97, 99, 99, 61, 89, 92, 90, 98, 99, 98, 99, 99, 88, 97, 98, 83, 96, 97, 43, 81, 86, 88, 98, 98, 99, 99, 99, 60, 88, 91, 97, 99, 99, 85, 96, 97, 61, 88, 92, 83, 96, 97, 86, 97, 98, 66, 90, 93, 99, 99, 99, 81, 95, 97, 87, 97, 98, 33, 77, 82, 66, 90, 93, 99, 99, 99, 95, 99, 99, 86, 97, 98, 73, 93, 95, 90, 98, 99, 89, 98, 98, 52, 85, 89, 45, 82, 86, 87, 97, 98, 55, 86, 90, 90, 98, 99, 98, 99, 99, 82, 96, 97, 76, 94, 95, 56, 86, 90, 42, 81, 86, 68, 91, 94, 69, 91, 94, 72, 93, 95, 73, 93, 95, 69, 91, 94, 39, 79, 84, 88, 98, 98, 98, 99, 99, 93, 99, 99, 94, 99, 99, 89, 98, 98, 65, 90, 93, 99, 99, 99, 86, 97, 98, 65, 90, 93, 93, 99, 99, 99, 99, 99, 93, 99, 99, 98, 99, 99, 65, 90, 93, 96, 99, 99, 95, 99, 99, 65, 90, 93, 65, 90, 93, 79, 95, 96, 53, 86, 89, 99, 99, 99, 42, 81, 86, 81, 95, 97, 91, 98, 99, 63, 89, 92, 76, 94, 95, 32, 76, 81, 98, 99, 99, 80, 95, 96, 85, 96, 98, 76, 94, 96, 93, 99, 99, 99, 99, 99, 81, 96, 97, 89, 98, 98, 56, 86, 90, 86, 97, 98, 86, 97, 98, 77, 94, 96, 82, 96, 97, 43, 81, 86, 67, 91, 93, 84, 96, 97, 94, 99, 99, 79, 95, 96, 70, 92, 94, 69, 92, 94, 27, 73, 79, 94, 99, 99, 86, 97, 98, 86, 97, 98, 91, 98, 99, 89, 98, 98, 85, 96, 97, 81, 96, 97, 93, 99, 99, 97, 99, 99, 91, 98, 99, 97, 99, 99, 91, 98, 99, 74, 93, 95, 79, 95, 96, 21, 69, 76, 81, 95, 97, 81, 95, 97, 77, 94, 96, 71, 92, 94, 78, 94, 96, 80, 95, 96, 78, 95, 96, 89, 98, 98, 68, 91, 94, 78, 95, 96, 91, 98, 99, 93, 99, 99, 99, 99, 99, 89, 98, 99, 99, 99, 99, 96, 99, 99, 99, 99, 99, 92, 98, 99, 89, 98, 99, 79, 95, 96, 68, 91, 94, 77, 94, 96, 96, 99, 99, 55, 86, 90, 71, 92, 94, 84, 96, 97, 77, 94, 96, 83, 96, 97, 96, 99, 99, 77, 94, 96, 31, 75, 81, 68, 91, 94, 95, 99, 99, 97, 99, 99, 50, 85, 88, 53, 86, 89, 70, 92, 94, 69, 91, 94, 97, 99, 99, 65, 90, 93, 95, 99, 99, 96, 99, 99, 87, 97, 98, 99, 99, 99, 61, 89, 92, 96, 99, 99, 71, 92, 94, 80, 95, 96, 68, 91, 94, 79, 95, 96, 43, 81, 86, 88, 97, 98, 84, 96, 97, 90, 98, 99, 70, 92, 94, 91, 98, 99, 66, 90, 93, 98, 99, 99, 94, 99, 99, 86, 97, 98, 97, 99, 99, 95, 99, 99, 62, 89, 92, 88, 98, 98, 94, 99, 99, 61, 89, 92, 80, 95, 97, 77, 94, 96, 57, 87, 90, 72, 93, 95, 93, 99, 99, 99, 99, 99, 81, 95, 97, 73, 93, 95, 65, 90, 93, 95, 99, 99, 77, 94, 96, 48, 84, 88, 93, 99, 99, 92, 98, 99, 86, 97, 98, 81, 95, 97, 30, 74, 81, 80, 95, 96, 57, 87, 90, 76, 94, 96, 85, 96, 98, 91, 98, 99, 89, 98, 98, 68, 91, 94, 95, 99, 99, 97, 99, 99, 94, 99, 99, 75, 93, 95, 88, 98, 98, 95, 99, 99, 90, 98, 99, 98, 99, 99, 86, 97, 98, 65, 90, 93, 86, 97, 98, 86, 97, 98, 99, 99, 99, 92, 98, 99, 98, 99, 99, 99, 99, 99, 60, 88, 91, 72, 93, 95, 63, 89, 92, 97, 99, 99, 89, 98, 98, 53, 86, 89, 86, 97, 98, 51, 85, 88, 43, 81, 86, 99, 99, 99, 86, 97, 98, 80, 95, 96, 89, 98, 99, 88, 98, 98, 89, 98, 98, 94, 99, 99, 99, 99, 99, 71, 92, 94, 18, 66, 74, 99, 99, 99, 60, 88, 91, 81, 96, 97, 99, 99, 99, 99, 99, 99, 82, 96, 97, 98, 99, 99, 91, 98, 99, 92, 98, 99, 40, 80, 85, 85, 96, 98, 92, 98, 99, 48, 84, 88, 41, 81, 86, 72, 92, 95, 97, 99, 99, 56, 87, 90, 86, 97, 98, 67, 91, 93, 71, 92, 95, 76, 94, 96, 69, 91, 94, 65, 90, 93, 85, 97, 98, 84, 96, 97, 98, 99, 99, 89, 98, 98, 57, 87, 90, 94, 99, 99, 70, 92, 94, 65, 90, 93, 95, 99, 99, 69, 91, 94, 76, 94, 96, 38, 79, 84, 88, 97, 98, 69, 92, 94, 61, 89, 92, 88, 97, 98, 94, 99, 99, 89, 98, 98, 76, 94, 96, 93, 99, 99, 60, 88, 91, 91, 98, 99, 69, 91, 94, 90, 98, 99, 83, 96, 97, 58, 87, 91, 84, 96, 97, 77, 94, 96, 90, 98, 99, 85, 96, 98, 99, 99, 99, 83, 96, 97, 86, 97, 98, 91, 98, 99, 96, 99, 99, 90, 98, 99, 91, 98, 99, 89, 98, 98, 65, 90, 93, 55, 86, 90, 53, 86, 89, 86, 97, 98, 55, 86, 90, 80, 95, 96, 22, 69, 77, 97, 99, 99, 69, 92, 94, 80, 95, 96, 83, 96, 97, 69, 91, 94, 63, 89, 92, 63, 89, 92, 90, 98, 99, 88, 97, 98, 79, 95, 96, 99, 99, 99, 65, 90, 93, 80, 95, 96, 86, 97, 98, 77, 94, 96, 44, 82, 86, 65, 90, 93, 76, 94, 96, 94, 99, 99, 39, 80, 85, 88, 97, 98, 54, 86, 90, 84, 96, 97, 75, 93, 95, 57, 87, 90, 99, 99, 99, 91, 98, 99, 95, 99, 99, 99, 99, 99, 90, 98, 99, 53, 86, 89, 93, 99, 99, 97, 99, 99, 48, 83, 87, 84, 96, 97, 85, 96, 98, 74, 93, 95, 65, 90, 93, 94, 99, 99, 95, 99, 99]);
precedence = array2d(JOBS,MACHINES,[4, 9, 8, 17, 5, 19, 15, 1, 6, 12, 7, 3, 13, 10, 18, 11, 16, 0, 14, 2, 4, 9, 15, 17, 12, 11, 8, 1, 5, 7, 3, 0, 14, 6, 10, 2, 18, 16, 19, 13, 4, 9, 0, 15, 5, 3, 16, 19, 12, 14, 1, 8, 18, 7, 17, 2, 10, 6, 11, 13, 18, 0, 8, 17, 13, 16, 19, 14, 10, 9, 4, 6, 1, 5, 15, 7, 12, 3, 11, 2, 4, 19, 18, 12, 8, 9, 17, 14, 0, 13, 6, 11, 15, 10, 3, 2, 16, 7, 5, 1, 8, 14, 2, 6, 17, 5, 4, 18, 15, 7, 1, 10, 16, 19, 3, 13, 11, 12, 9, 0, 5, 2, 6, 10, 9, 8, 7, 18, 19, 0, 15, 11, 13, 1, 16, 17, 4, 3, 14, 12, 5, 4, 6, 15, 17, 2, 14, 0, 8, 13, 12, 9, 10, 19, 7, 16, 1, 3, 11, 18, 3, 17, 12, 2, 10, 4, 15, 5, 8, 13, 16, 14, 0, 18, 19, 11, 6, 7, 9, 1, 16, 6, 7, 2, 10, 0, 17, 5, 8, 12, 11, 15, 9, 4, 13, 3, 14, 18, 19, 1, 5, 11, 13, 1, 6, 10, 4, 16, 15, 12, 0, 8, 2, 17, 7, 3, 19, 18, 9, 14, 5, 6, 11, 7, 16, 12, 3, 8, 10, 1, 17, 15, 9, 2, 0, 4, 14, 19, 13, 18, 19, 18, 6, 10, 16, 14, 1, 0, 7, 4, 15, 3, 2, 8, 12, 11, 13, 9, 17, 5, 9, 4, 2, 18, 13, 19, 16, 6, 17, 8, 11, 14, 10, 5, 12, 0, 15, 3, 1, 7, 8, 15, 0, 16, 7, 19, 5, 3, 1, 18, 4, 17, 11, 12, 6, 9, 2, 13, 10, 14, 1, 15, 13, 16, 12, 19, 14, 5, 11, 10, 2, 6, 4, 8, 17, 18, 3, 7, 0, 9, 3, 7, 6, 15, 0, 9, 12, 17, 13, 16, 8, 19, 2, 14, 4, 18, 1, 10, 11, 5, 6, 9, 4, 10, 17, 13, 11, 19, 7, 14, 15, 8, 12, 3, 16, 0, 2, 1, 5, 18, 12, 5, 8, 19, 2, 14, 4, 13, 6, 15, 3, 11, 7, 10, 0, 1, 9, 16, 17, 18, 11, 6, 16, 9, 0, 15, 17, 1, 8, 3, 5, 18, 13, 10, 14, 4, 19, 7, 2, 12]);